(set-info :smt-lib-version 2.6)
(set-logic QF_UF)
(set-info :source |
Generated by: David Deharbe, CLEARSY
Generated on: 2019-09-06
Generator: bxml;pog;pog2smt (Atelier B)
Application: B-method
Target solver: CVC4, Z3
|)
(set-info :license "https://creativecommons.org/licenses/by-nc/4.0/")
(set-info :category "industrial")
(set-info :status sat)
; Prelude
(declare-sort U 0)
(declare-fun |*i| (U U) U)
(declare-fun |+i| (U U) U)
(declare-fun |-i| (U U) U)
(declare-fun idiv (U U) U)
(declare-fun |*r| (U U) U)
(declare-fun |+r| (U U) U)
(declare-fun |-r| (U U) U)
(declare-fun rdiv (U U) U)
(declare-fun modulo (U U) U)
(declare-fun |<i| (U U) Bool)
(declare-fun |<=i| (U U) Bool)
(declare-fun |>i| (U U) Bool)
(declare-fun |>=i| (U U) Bool)
(declare-fun |<r| (U U) Bool)
(declare-fun |<=r| (U U) Bool)
(declare-fun |>r| (U U) Bool)
(declare-fun |>=r| (U U) Bool)
(declare-fun iuminus (U) U)
(declare-fun ruminus (U) U)
(declare-fun TRUE () U)
(declare-fun FALSE () U)
(assert (not (= TRUE FALSE)))
(declare-fun empty () U)
(declare-fun bool (Bool) U)
(declare-fun BOOL () U)
(declare-fun INT () U)
(declare-fun INTEGER () U)
(declare-fun NAT () U)
(declare-fun NAT1 () U)
(declare-fun NATURAL () U)
(declare-fun NATURAL1 () U)
(declare-fun FLOAT () U)
(declare-fun MaxInt () U)
(declare-fun MinInt () U)
(declare-fun |STRING| () U)
(declare-fun REAL () U)
(declare-fun set_prod (U U) U)
(declare-fun set_diff (U U) U)
(declare-fun mapplet (U U) U)
(declare-fun |**i| (U U) U)
(declare-fun |**r| (U U) U)
(declare-fun |+->| (U U) U)
(declare-fun |+->>| (U U) U)
(declare-fun |-->| (U U) U)
(declare-fun |-->>| (U U) U)
(declare-fun |<->| (U U) U)
(declare-fun |>+>| (U U) U)
(declare-fun |>->| (U U) U)
(declare-fun |>+>>| (U U) U)
(declare-fun |>->>| (U U) U)
(declare-fun |->| (U U) U)
(declare-fun interval (U U) U)
(declare-fun composition (U U) U)
(declare-fun binary_inter (U U) U)
(declare-fun restriction_head (U U) U)
(declare-fun semicolon (U U) U)
(declare-fun |<+| (U U) U)
(declare-fun |<-| (U U) U)
(declare-fun domain_subtraction (U U) U)
(declare-fun domain_restriction (U U) U)
(declare-fun |><| (U U) U)
(declare-fun parallel_product (U U) U)
(declare-fun binary_union (U U) U)
(declare-fun restriction_tail (U U) U)
(declare-fun concatenate (U U) U)
(declare-fun range_restriction (U U) U)
(declare-fun range_subtraction (U U) U)
(declare-fun image (U U) U)
(declare-fun apply (U U) U)
(declare-fun prj1 (U U) U)
(declare-fun prj2 (U U) U)
(declare-fun iterate (U U) U)
(declare-fun |const| (U U) U)
(declare-fun rank (U U) U)
(declare-fun father (U U) U)
(declare-fun subtree (U U) U)
(declare-fun arity (U U) U)
(declare-fun |+f| (U U) U)
(declare-fun |-f| (U U) U)
(declare-fun |*f| (U U) U)
(declare-fun |fdiv| (U U) U)
(declare-fun tbin (U U U) U)
(declare-fun son (U U U) U)
(declare-fun mem (U U) Bool)
(declare-fun subset (U U) Bool)
(declare-fun strict_subset (U U) Bool)
(declare-fun |<=f| (U U) Bool)
(declare-fun |<f| (U U) Bool)
(declare-fun |>=f| (U U) Bool)
(declare-fun |>f| (U U) Bool)
(declare-fun imax (U) U)
(declare-fun imin (U) U)
(declare-fun rmax (U) U)
(declare-fun rmin (U) U)
(declare-fun card (U) U)
(declare-fun dom (U) U)
(declare-fun ran (U) U)
(declare-fun POW (U) U)
(declare-fun POW1 (U) U)
(declare-fun FIN (U) U)
(declare-fun FIN1 (U) U)
(declare-fun union (U) U)
(declare-fun inter (U) U)
(declare-fun seq (U) U)
(declare-fun seq1 (U) U)
(declare-fun iseq (U) U)
(declare-fun iseq1 (U) U)
(declare-fun inverse (U) U)
(declare-fun size (U) U)
(declare-fun perm (U) U)
(declare-fun first (U) U)
(declare-fun last (U) U)
(declare-fun id (U) U)
(declare-fun closure (U) U)
(declare-fun closure1 (U) U)
(declare-fun tail (U) U)
(declare-fun front (U) U)
(declare-fun reverse (U) U)
(declare-fun rev (U) U)
(declare-fun conc (U) U)
(declare-fun succ (U) U)
(declare-fun pred (U) U)
(declare-fun rel (U) U)
(declare-fun fnc (U) U)
(declare-fun real (U) U)
(declare-fun floor (U) U)
(declare-fun ceiling (U) U)
(declare-fun tree (U) U)
(declare-fun btree (U) U)
(declare-fun top (U) U)
(declare-fun sons (U) U)
(declare-fun prefix (U) U)
(declare-fun postfix (U) U)
(declare-fun sizet (U) U)
(declare-fun mirror (U) U)
(declare-fun left (U) U)
(declare-fun right (U) U)
(declare-fun infix (U) U)
(declare-fun ubin (U) U)
(declare-fun SEQ (U) U)
(declare-fun SET (U) U)
; Opaque formulas
(declare-fun e40 () U)
(declare-fun e0 () U)
(declare-fun e49 () U)
(declare-fun e166 () U)
(declare-fun e62 () U)
(declare-fun e115 () U)
(declare-fun e87 () U)
(declare-fun e120 () U)
(declare-fun e118 () U)
(declare-fun e105 () U)
(declare-fun e85 () U)
(declare-fun e239 () U)
(declare-fun e56 () U)
(declare-fun e57 () U)
(declare-fun e193 () U)
(declare-fun e238 () U)
(declare-fun e112 () U)
(declare-fun e103 () U)
(declare-fun e80 () U)
(declare-fun e55 () U)
(declare-fun e83 () U)
(declare-fun e165 () U)
(declare-fun e44 () U)
(declare-fun e198 () U)
(declare-fun e53 () U)
(declare-fun e175 () U)
(declare-fun e42 () U)
(declare-fun e234 () U)
(declare-fun g_s0_1 () U)
(declare-fun g_s1_2 () U)
(declare-fun g_s10_11 () U)
(declare-fun g_s100_119 () U)
(declare-fun g_s103_122 () U)
(declare-fun g_s104_123 () U)
(declare-fun g_s105_124 () U)
(declare-fun g_s106_125 () U)
(declare-fun g_s107_126 () U)
(declare-fun g_s108_127 () U)
(declare-fun g_s109_128 () U)
(declare-fun g_s11_12 () U)
(declare-fun g_s110_129 () U)
(declare-fun g_s111_130 () U)
(declare-fun g_s112_131 () U)
(declare-fun g_s113_132 () U)
(declare-fun g_s114_133 () U)
(declare-fun g_s115_134 () U)
(declare-fun g_s116_135 () U)
(declare-fun g_s117_136 () U)
(declare-fun g_s118_137 () U)
(declare-fun g_s119_138 () U)
(declare-fun g_s12_13 () U)
(declare-fun g_s120_139 () U)
(declare-fun g_s121_140 () U)
(declare-fun g_s122_141 () U)
(declare-fun g_s123_142 () U)
(declare-fun g_s124_143 () U)
(declare-fun g_s125_144 () U)
(declare-fun g_s126_145 () U)
(declare-fun g_s127_146 () U)
(declare-fun g_s128_147 () U)
(declare-fun g_s129_148 () U)
(declare-fun g_s13_14 () U)
(declare-fun g_s130_149 () U)
(declare-fun g_s131_150 () U)
(declare-fun g_s132_151 () U)
(declare-fun g_s133_152 () U)
(declare-fun g_s134_153 () U)
(declare-fun g_s135_154 () U)
(declare-fun g_s136_155 () U)
(declare-fun g_s137_156 () U)
(declare-fun g_s138_157 () U)
(declare-fun g_s139_158 () U)
(declare-fun g_s14_15 () U)
(declare-fun g_s140_159 () U)
(declare-fun g_s141_160 () U)
(declare-fun g_s142_161 () U)
(declare-fun g_s143_162 () U)
(declare-fun g_s144_163 () U)
(declare-fun g_s145_164 () U)
(declare-fun g_s146_167 () U)
(declare-fun g_s147_168 () U)
(declare-fun g_s148_169 () U)
(declare-fun g_s149_170 () U)
(declare-fun g_s15_16 () U)
(declare-fun g_s150_171 () U)
(declare-fun g_s151_172 () U)
(declare-fun g_s152_173 () U)
(declare-fun g_s153_174 () U)
(declare-fun g_s154_176 () U)
(declare-fun g_s155_177 () U)
(declare-fun g_s156_178 () U)
(declare-fun g_s157_179 () U)
(declare-fun g_s158_180 () U)
(declare-fun g_s159_181 () U)
(declare-fun g_s16_17 () U)
(declare-fun g_s160_182 () U)
(declare-fun g_s161_183 () U)
(declare-fun g_s162_184 () U)
(declare-fun g_s163_185 () U)
(declare-fun g_s164_186 () U)
(declare-fun g_s165_187 () U)
(declare-fun g_s166_188 () U)
(declare-fun g_s167_189 () U)
(declare-fun g_s168_190 () U)
(declare-fun g_s169_191 () U)
(declare-fun g_s17_18 () U)
(declare-fun g_s170_192 () U)
(declare-fun g_s171_194 () U)
(declare-fun g_s172_195 () U)
(declare-fun g_s173_196 () U)
(declare-fun g_s174_197 () U)
(declare-fun g_s175_199 () U)
(declare-fun g_s176_200 () U)
(declare-fun g_s177_201 () U)
(declare-fun g_s178_202 () U)
(declare-fun g_s179_203 () U)
(declare-fun g_s18_19 () U)
(declare-fun g_s180_204 () U)
(declare-fun g_s181_205 () U)
(declare-fun g_s182_206 () U)
(declare-fun g_s183_207 () U)
(declare-fun g_s184_208 () U)
(declare-fun g_s185_209 () U)
(declare-fun g_s186_210 () U)
(declare-fun g_s187_211 () U)
(declare-fun g_s188_212 () U)
(declare-fun g_s189_213 () U)
(declare-fun g_s19_20 () U)
(declare-fun g_s190_214 () U)
(declare-fun g_s191_215 () U)
(declare-fun g_s192_216 () U)
(declare-fun g_s193_217 () U)
(declare-fun g_s194_218 () U)
(declare-fun g_s195_219 () U)
(declare-fun g_s196_220 () U)
(declare-fun g_s197_221 () U)
(declare-fun g_s198_222 () U)
(declare-fun g_s199_223 () U)
(declare-fun g_s2_3 () U)
(declare-fun g_s20_21 () U)
(declare-fun g_s200_224 () U)
(declare-fun g_s201_225 () U)
(declare-fun g_s202_226 () U)
(declare-fun g_s203_227 () U)
(declare-fun g_s204_228 () U)
(declare-fun g_s205_229 () U)
(declare-fun g_s206_230 () U)
(declare-fun g_s207_231 () U)
(declare-fun g_s208_232 () U)
(declare-fun g_s209_233 () U)
(declare-fun g_s21_22 () U)
(declare-fun g_s210_235 () U)
(declare-fun g_s211_236 () U)
(declare-fun g_s212_237 () U)
(declare-fun g_s22_23 () U)
(declare-fun g_s23_24 () U)
(declare-fun g_s24_25 () U)
(declare-fun g_s25_26 () U)
(declare-fun g_s26_27 () U)
(declare-fun g_s27_28 () U)
(declare-fun g_s28_29 () U)
(declare-fun g_s29_30 () U)
(declare-fun g_s3_4 () U)
(declare-fun g_s30_31 () U)
(declare-fun g_s31_32 () U)
(declare-fun g_s32_33 () U)
(declare-fun g_s33_34 () U)
(declare-fun g_s34_35 () U)
(declare-fun g_s35_36 () U)
(declare-fun g_s36_37 () U)
(declare-fun g_s37_38 () U)
(declare-fun g_s38_39 () U)
(declare-fun g_s39_41 () U)
(declare-fun g_s4_5 () U)
(declare-fun g_s40_43 () U)
(declare-fun g_s41_45 () U)
(declare-fun g_s42_46 () U)
(declare-fun g_s43_47 () U)
(declare-fun g_s44_48 () U)
(declare-fun g_s45_50 () U)
(declare-fun g_s46_51 () U)
(declare-fun g_s47_52 () U)
(declare-fun g_s48_54 () U)
(declare-fun g_s49_58 () U)
(declare-fun g_s5_6 () U)
(declare-fun g_s50_59 () U)
(declare-fun g_s51_60 () U)
(declare-fun g_s52_61 () U)
(declare-fun g_s53_63 () U)
(declare-fun g_s54_64 () U)
(declare-fun g_s55_65 () U)
(declare-fun g_s56_66 () U)
(declare-fun g_s57_67 () U)
(declare-fun g_s58_68 () U)
(declare-fun g_s59_69 () U)
(declare-fun g_s6_7 () U)
(declare-fun g_s60_70 () U)
(declare-fun g_s61_71 () U)
(declare-fun g_s62_72 () U)
(declare-fun g_s63_73 () U)
(declare-fun g_s64_74 () U)
(declare-fun g_s65_75 () U)
(declare-fun g_s66_76 () U)
(declare-fun g_s67_77 () U)
(declare-fun g_s68_78 () U)
(declare-fun g_s69_79 () U)
(declare-fun g_s7_8 () U)
(declare-fun g_s70_81 () U)
(declare-fun g_s71_82 () U)
(declare-fun g_s72_84 () U)
(declare-fun g_s73_86 () U)
(declare-fun g_s74_88 () U)
(declare-fun g_s75_89 () U)
(declare-fun g_s76_90 () U)
(declare-fun g_s77_91 () U)
(declare-fun g_s78_92 () U)
(declare-fun g_s79_93 () U)
(declare-fun g_s8_9 () U)
(declare-fun g_s80_94 () U)
(declare-fun g_s81_95 () U)
(declare-fun g_s82_96 () U)
(declare-fun g_s83_97 () U)
(declare-fun g_s84_98 () U)
(declare-fun g_s85_99 () U)
(declare-fun g_s86_100 () U)
(declare-fun g_s87_101 () U)
(declare-fun g_s88_102 () U)
(declare-fun g_s89_104 () U)
(declare-fun g_s9_10 () U)
(declare-fun g_s90_106 () U)
(declare-fun g_s91_107 () U)
(declare-fun g_s92_108 () U)
(declare-fun g_s93_109 () U)
(declare-fun g_s94_110 () U)
(declare-fun g_s95_111 () U)
(declare-fun g_s96_113 () U)
(declare-fun g_s97_114 () U)
(declare-fun g_s98_116 () U)
(declare-fun g_s99_117 () U)
(declare-fun e121 () U)
; Defines
(define-fun |def_B definitions| () Bool (and (= NAT (interval e0 MaxInt)) (= INT (interval MinInt MaxInt))))
(define-fun |def_ctx| () Bool (and (= g_s0_1 (SET (mapplet g_s7_8 (mapplet g_s6_7 (mapplet g_s5_6 (mapplet g_s4_5 (mapplet g_s3_4 (mapplet g_s2_3 g_s1_2)))))))) (= g_s8_9 (SET (mapplet g_s16_17 (mapplet g_s15_16 (mapplet g_s14_15 (mapplet g_s13_14 (mapplet g_s12_13 (mapplet g_s11_12 (mapplet g_s10_11 g_s9_10))))))))) (= g_s17_18 (SET (mapplet g_s19_20 g_s18_19))) (= g_s20_21 (SET (mapplet g_s26_27 (mapplet g_s25_26 (mapplet g_s24_25 (mapplet g_s23_24 (mapplet g_s22_23 g_s21_22))))))) (= g_s27_28 (SET (mapplet g_s30_31 (mapplet g_s29_30 g_s28_29)))) (= g_s31_32 (SET (mapplet g_s38_39 (mapplet g_s37_38 (mapplet g_s36_37 (mapplet g_s35_36 (mapplet g_s34_35 (mapplet g_s33_34 g_s32_33)))))))) (= g_s39_41 (interval e0 e40)) (= g_s40_43 (interval e0 e42)) (= g_s41_45 (interval e0 e44)) (mem g_s42_46 g_s39_41) (|<i| g_s42_46 g_s43_47) (mem g_s44_48 g_s39_41) (= g_s44_48 (|-i| g_s42_46 e49)) (mem g_s45_50 g_s39_41) (mem g_s46_51 g_s39_41) (|<i| g_s45_50 g_s43_47) (= g_s46_51 (|-i| g_s45_50 e49)) (mem g_s47_52 g_s40_43) (|<=i| g_s47_52 e53) (mem g_s48_54 g_s40_43) (|<=i| (|+i| g_s47_52 g_s48_54) e55) (|<=i| e56 g_s46_51) (|<=i| e57 g_s42_46) (mem g_s49_58 g_s41_45) (mem g_s50_59 g_s41_45) (mem g_s51_60 g_s41_45) (mem g_s52_61 g_s41_45) (= (SET (mapplet g_s52_61 (mapplet g_s51_60 (mapplet g_s50_59 g_s49_58)))) (interval e0 e62)) (mem g_s53_63 g_s41_45) (mem g_s54_64 g_s41_45) (mem g_s55_65 g_s41_45) (mem g_s56_66 g_s41_45) (mem g_s57_67 g_s41_45) (= g_s58_68 (|-->| (interval e49 e62) g_s41_45)) (mem g_s59_69 g_s41_45) (mem g_s60_70 g_s41_45) (mem g_s61_71 g_s41_45) (mem g_s62_72 g_s41_45) (mem g_s63_73 g_s41_45) (mem g_s64_74 g_s41_45) (mem g_s65_75 g_s41_45) (mem g_s66_76 g_s41_45) (mem g_s67_77 g_s41_45) (mem g_s61_71 g_s41_45) (not (mem g_s59_69 (SET (mapplet g_s61_71 (mapplet g_s67_77 (mapplet g_s66_76 (mapplet g_s65_75 (mapplet g_s64_74 (mapplet g_s63_73 (mapplet g_s62_72 g_s60_70)))))))))) (not (mem g_s60_70 (SET (mapplet g_s61_71 (mapplet g_s67_77 (mapplet g_s66_76 (mapplet g_s65_75 (mapplet g_s64_74 (mapplet g_s63_73 g_s62_72))))))))) (not (mem g_s62_72 (SET (mapplet g_s61_71 (mapplet g_s67_77 (mapplet g_s66_76 (mapplet g_s65_75 (mapplet g_s64_74 g_s63_73)))))))) (not (mem g_s63_73 (SET (mapplet g_s61_71 (mapplet g_s67_77 (mapplet g_s66_76 (mapplet g_s65_75 g_s64_74))))))) (not (mem g_s64_74 (SET (mapplet g_s61_71 (mapplet g_s67_77 (mapplet g_s66_76 g_s65_75)))))) (not (mem g_s65_75 (SET (mapplet g_s61_71 (mapplet g_s67_77 g_s66_76))))) (not (mem g_s66_76 (SET (mapplet g_s61_71 g_s67_77)))) (not (mem g_s67_77 (SET g_s61_71))) (mem g_s68_78 g_s41_45) (mem g_s69_79 g_s41_45) (|<=i| e80 g_s69_79) (mem g_s70_81 g_s41_45) (mem g_s71_82 g_s41_45) (= g_s71_82 (|-i| g_s70_81 e49)) (|<=i| g_s71_82 e83) (mem g_s72_84 g_s41_45) (|<=i| (|+i| g_s71_82 e85) g_s69_79) (mem g_s73_86 g_s58_68) (= g_s73_86 (set_prod (interval e49 e62) (SET e44))) (mem g_s74_88 (|-->| (interval e0 e87) g_s41_45)) (= g_s74_88 (set_prod (interval e0 e87) (SET e0))) (mem g_s75_89 (|-->| (interval e0 e87) g_s41_45)) (= g_s75_89 (set_prod (interval e0 e87) (SET e44))) (mem g_s76_90 g_s41_45) (mem g_s77_91 g_s41_45) (mem g_s78_92 g_s41_45) (mem g_s79_93 g_s41_45) (mem g_s80_94 g_s41_45) (mem g_s81_95 g_s41_45) (mem g_s82_96 g_s41_45) (mem g_s83_97 g_s41_45) (mem g_s84_98 g_s40_43) (mem g_s85_99 g_s39_41) (mem g_s86_100 (|-->| (interval e0 e44) g_s40_43)) (mem g_s87_101 g_s41_45) (mem g_s88_102 g_s41_45) (|<=i| g_s88_102 e103) (mem g_s89_104 g_s41_45) (|<=i| g_s89_104 e105) (mem g_s90_106 g_s41_45) (|<=i| g_s90_106 e105) (mem g_s91_107 g_s40_43) (mem g_s92_108 g_s40_43) (mem g_s93_109 (|-->| (interval e0 e44) g_s40_43)) (mem g_s94_110 g_s41_45) (mem g_s95_111 g_s41_45) (|<=i| e112 g_s94_110) (= g_s95_111 (|-i| g_s94_110 e49)) (mem g_s96_113 (|-->| (interval e0 e62) g_s41_45)) (mem g_s97_114 (|-->| (interval e0 e62) g_s41_45)) (mem g_s98_116 (|-->| (interval e0 e115) g_s41_45)) (mem g_s99_117 g_s41_45) (|<=i| e49 g_s99_117) (|<=i| g_s99_117 e118) (mem g_s100_119 g_s41_45) (|<=i| g_s100_119 e120) (= e121 e44) (mem g_s103_122 g_s41_45) (mem g_s104_123 g_s39_41) (mem g_s105_124 g_s39_41) (mem g_s106_125 g_s39_41) (mem g_s107_126 g_s39_41) (mem g_s108_127 g_s39_41) (mem g_s109_128 g_s39_41) (mem g_s110_129 g_s39_41) (mem g_s111_130 g_s39_41) (mem g_s112_131 g_s39_41) (mem g_s113_132 g_s39_41) (mem g_s114_133 g_s39_41) (mem g_s115_134 g_s39_41) (mem g_s116_135 g_s39_41) (mem g_s117_136 g_s39_41) (mem g_s118_137 g_s39_41) (mem g_s119_138 g_s39_41) (mem g_s120_139 g_s39_41) (mem g_s121_140 g_s39_41) (mem g_s122_141 g_s39_41) (mem g_s123_142 g_s39_41) (mem g_s124_143 g_s39_41) (mem g_s125_144 g_s39_41) (mem g_s126_145 g_s39_41) (mem g_s127_146 g_s39_41) (mem g_s128_147 g_s39_41) (mem g_s129_148 g_s39_41) (mem g_s130_149 g_s39_41) (mem g_s131_150 g_s39_41) (mem g_s132_151 g_s39_41) (mem g_s133_152 g_s39_41) (mem g_s134_153 g_s39_41) (mem g_s135_154 g_s39_41) (mem g_s136_155 g_s39_41) (mem g_s137_156 g_s39_41) (mem g_s138_157 g_s39_41) (mem g_s139_158 g_s39_41) (mem g_s140_159 g_s40_43) (mem g_s141_160 g_s40_43) (mem g_s142_161 g_s39_41) (mem g_s143_162 g_s39_41) (mem g_s144_163 g_s41_45) (mem g_s145_164 g_s41_45) (|<=i| g_s145_164 e165) (|<=i| e166 g_s145_164) (mem g_s146_167 g_s40_43) (|<=i| e49 g_s146_167) (|<i| g_s146_167 e42) (mem g_s147_168 g_s41_45) (|<=i| e49 g_s147_168) (mem g_s148_169 g_s40_43) (mem g_s149_170 g_s40_43) (mem g_s150_171 g_s40_43) (mem g_s151_172 g_s40_43) (mem g_s152_173 g_s40_43) (mem g_s153_174 g_s40_43) (|<=i| g_s153_174 e175) (mem g_s154_176 g_s40_43) (|<=i| g_s154_176 e175) (mem g_s155_177 g_s40_43) (mem g_s156_178 (|-->| (interval e0 e120) g_s40_43)) (mem g_s157_179 (|-->| (interval e0 e120) g_s40_43)) (mem g_s158_180 g_s40_43) (|<=i| g_s158_180 e175) (mem g_s159_181 g_s40_43) (|<=i| g_s159_181 e175) (mem g_s160_182 g_s39_41) (|<i| g_s160_182 (|-i| g_s43_47 g_s161_183)) (mem g_s162_184 g_s40_43) (mem g_s163_185 g_s40_43) (mem g_s164_186 g_s41_45) (mem g_s165_187 g_s41_45) (mem g_s166_188 g_s41_45) (mem g_s167_189 g_s41_45) (|<=i| e49 g_s167_189) (mem g_s168_190 g_s41_45) (mem g_s169_191 g_s41_45) (mem g_s170_192 g_s41_45) (|<=i| e166 g_s170_192) (|<=i| g_s170_192 e193) (mem g_s171_194 g_s41_45) (|<=i| g_s171_194 e165) (mem g_s172_195 g_s41_45) (mem g_s173_196 g_s41_45) (mem g_s174_197 g_s40_43) (|<=i| g_s174_197 e198) (mem g_s175_199 g_s39_41) (mem g_s176_200 g_s39_41) (mem g_s177_201 g_s39_41) (mem g_s178_202 g_s39_41) (mem g_s179_203 g_s39_41) (mem g_s180_204 g_s39_41) (mem g_s181_205 g_s39_41) (mem g_s182_206 g_s40_43) (mem g_s183_207 g_s40_43) (mem g_s184_208 g_s40_43) (mem g_s185_209 g_s40_43) (mem g_s186_210 g_s39_41) (mem g_s187_211 g_s39_41) (mem g_s188_212 g_s40_43) (mem g_s189_213 g_s40_43) (mem g_s190_214 g_s40_43) (mem g_s191_215 g_s39_41) (mem g_s192_216 g_s39_41) (mem g_s193_217 g_s39_41) (mem g_s194_218 g_s39_41) (mem g_s195_219 g_s39_41) (mem g_s196_220 g_s39_41) (mem g_s197_221 g_s39_41) (mem g_s198_222 g_s39_41) (mem g_s199_223 g_s39_41) (mem g_s200_224 g_s39_41) (mem g_s201_225 g_s39_41) (mem g_s202_226 g_s39_41) (mem g_s203_227 g_s39_41) (mem g_s204_228 g_s39_41) (mem g_s205_229 g_s39_41) (mem g_s206_230 g_s39_41) (mem g_s207_231 g_s39_41) (mem g_s208_232 g_s39_41) (mem g_s209_233 g_s39_41) (|<=i| g_s209_233 e234) (mem g_s210_235 g_s41_45) (|<=i| e49 g_s210_235) (|<=i| g_s210_235 e165) (mem g_s211_236 g_s41_45) (mem g_s212_237 g_s39_41)))
(define-fun |def_seext| () Bool  (|<i| (|+i| g_s89_104 g_s90_106) e238))
(define-fun |def_lprp| () Bool (and (|<=i| e239 g_s44_48) (mem (|-i| (idiv (|*i| (|*i| g_s88_102 g_s87_101) (|-i| e238 g_s89_104)) e238) (|+i| g_s47_52 g_s48_54)) g_s40_43)))
(define-fun |def_inprp| () Bool true)
(define-fun |def_inext| () Bool true)
(define-fun |def_inv| () Bool true)
(define-fun |def_ass| () Bool true)
(define-fun |def_cst| () Bool true)
(define-fun |def_sets| () Bool true)
; PO group 0 
(assert |def_B definitions|)
(assert |def_ctx|)
(assert |def_cst|)
(assert |def_sets|)
(define-fun lh_1 () Bool (|<=i| e239 g_s44_48))
; PO 1 in group 0
(assert (not (=> lh_1 (not (= e238 e0)))))
(check-sat)
(exit)